loop__main__1413:
(set-info :source |printed by MathSAT|)
(declare-fun |main::q| () (_ BitVec 64))
(declare-fun |main::local_3c| () (_ BitVec 32))
(declare-fun |main::p| () (_ BitVec 64))
(declare-fun |main::A| () (_ BitVec 32))
(declare-fun |main::d| () (_ BitVec 64))
(declare-fun |main::tmp_var_2_uint| () (_ BitVec 32))
(assert (let ((.def_261 ((_ zero_extend 32) |main::tmp_var_2_uint|)))(let ((.def_262 (= |main::d| .def_261)))(let ((.def_257 (= |main::A| (_ bv0 32))))(let ((.def_271 (and .def_257 .def_262)))(let ((.def_119 ((_ zero_extend 32) |main::local_3c|)))(let ((.def_121 (bvmul |main::q| .def_119)))(let ((.def_123 (= .def_121 |main::p|)))(let ((.def_272 (and .def_123 .def_271))).def_272)))))))))
loop__main__1439:
(set-info :source |printed by MathSAT|)
(assert false)
